(declare-const x1 Bool)
(declare-const x1x2 Bool)
(declare-const x1x3 Bool)
(declare-const x1x4 Bool)
(declare-const x1x5 Bool)
(declare-const x1x6 Bool)
(declare-const x2 Bool)
(declare-const x2x1 Bool)
(declare-const x2x3 Bool)
(declare-const x2x4 Bool)
(declare-const x2x5 Bool)
(declare-const x2x6 Bool)
(declare-const x3 Bool)
(declare-const x3x1 Bool)
(declare-const x3x2 Bool)
(declare-const x3x4 Bool)
(declare-const x3x5 Bool)
(declare-const x3x6 Bool)
(declare-const x4 Bool)
(declare-const x4x1 Bool)
(declare-const x4x2 Bool)
(declare-const x4x3 Bool)
(declare-const x4x5 Bool)
(declare-const x4x6 Bool)
(declare-const x5 Bool)
(declare-const x5x1 Bool)
(declare-const x5x2 Bool)
(declare-const x5x3 Bool)
(declare-const x5x4 Bool)
(declare-const x5x6 Bool)
(declare-const x6 Bool)
(declare-const x6x1 Bool)
(declare-const x6x2 Bool)
(declare-const x6x3 Bool)
(declare-const x6x4 Bool)
(declare-const x6x5 Bool)

(assert (or (and (not x1x3) (not x1x4) (not x1x5) (not x1x6) x1x2)(and (not x1x2) (not x1x4) (not x1x5) (not x1x6) x1x3)(and (not x1x2) (not x1x3) (not x1x5) (not x1x6) x1x4)(and (not x1x2) (not x1x3) (not x1x4) (not x1x6) x1x5)(and (not x1x2) (not x1x3) (not x1x4) (not x1x5) x1x6)(and (not x1x2) (not x1x3) (not x1x4) (not x1x5) (not x1x6) x1)))
(assert (or (and (not x2x3) (not x2x4) (not x2x5) (not x2x6) x2x1)(and (not x2x1) (not x2x4) (not x2x5) (not x2x6) x2x3)(and (not x2x1) (not x2x3) (not x2x5) (not x2x6) x2x4)(and (not x2x1) (not x2x3) (not x2x4) (not x2x6) x2x5)(and (not x2x1) (not x2x3) (not x2x4) (not x2x5) x2x6)(and (not x2x1) (not x2x3) (not x2x4) (not x2x5) (not x2x6) x2)))
(assert (or (and (not x3x2) (not x3x4) (not x3x5) (not x3x6) x3x1)(and (not x3x1) (not x3x4) (not x3x5) (not x3x6) x3x2)(and (not x3x1) (not x3x2) (not x3x5) (not x3x6) x3x4)(and (not x3x1) (not x3x2) (not x3x4) (not x3x6) x3x5)(and (not x3x1) (not x3x2) (not x3x4) (not x3x5) x3x6)(and (not x3x1) (not x3x2) (not x3x4) (not x3x5) (not x3x6) x3)))
(assert (or (and (not x4x2) (not x4x3) (not x4x5) (not x4x6) x4x1)(and (not x4x1) (not x4x3) (not x4x5) (not x4x6) x4x2)(and (not x4x1) (not x4x2) (not x4x5) (not x4x6) x4x3)(and (not x4x1) (not x4x2) (not x4x3) (not x4x6) x4x5)(and (not x4x1) (not x4x2) (not x4x3) (not x4x5) x4x6)(and (not x4x1) (not x4x2) (not x4x3) (not x4x5) (not x4x6) x4)))
(assert (or (and (not x5x2) (not x5x3) (not x5x4) (not x5x6) x5x1)(and (not x5x1) (not x5x3) (not x5x4) (not x5x6) x5x2)(and (not x5x1) (not x5x2) (not x5x4) (not x5x6) x5x3)(and (not x5x1) (not x5x2) (not x5x3) (not x5x6) x5x4)(and (not x5x1) (not x5x2) (not x5x3) (not x5x4) x5x6)(and (not x5x1) (not x5x2) (not x5x3) (not x5x4) (not x5x6) x5)))
(assert (or (and (not x6x2) (not x6x3) (not x6x4) (not x6x5) x6x1)(and (not x6x1) (not x6x3) (not x6x4) (not x6x5) x6x2)(and (not x6x1) (not x6x2) (not x6x4) (not x6x5) x6x3)(and (not x6x1) (not x6x2) (not x6x3) (not x6x5) x6x4)(and (not x6x1) (not x6x2) (not x6x3) (not x6x4) x6x5)(and (not x6x1) (not x6x2) (not x6x3) (not x6x4) (not x6x5) x6)))
(assert (or (and x1 (not x2) (not x3) (not x4) (not x5) (not x6)) (and (not x1) x2 (not x3) (not x4) (not x5) (not x6)) (and (not x1) (not x2) x3 (not x4) (not x5) (not x6)) (and (not x1) (not x2) (not x3) x4 (not x5) (not x6)) (and (not x1) (not x2) (not x3) (not x4) x5 (not x6)) (and (not x1) (not x2) (not x3) (not x4) (not x5) x6)))

(assert (not (xor x1x2 x2x1)))
(assert (not (xor x1x3 x3x1)))
(assert (not (xor x1x4 x4x1)))
(assert (not (xor x1x5 x5x1)))
(assert (not (xor x1x6 x6x1)))
(assert (not (xor x2x1 x1x2)))
(assert (not (xor x2x3 x3x2)))
(assert (not (xor x2x4 x4x2)))
(assert (not (xor x2x5 x5x2)))
(assert (not (xor x2x6 x6x2)))
(assert (not (xor x3x1 x1x3)))
(assert (not (xor x3x2 x2x3)))
(assert (not (xor x3x4 x4x3)))
(assert (not (xor x3x5 x5x3)))
(assert (not (xor x3x6 x6x3)))
(assert (not (xor x4x1 x1x4)))
(assert (not (xor x4x2 x2x4)))
(assert (not (xor x4x3 x3x4)))
(assert (not (xor x4x5 x5x4)))
(assert (not (xor x4x6 x6x4)))
(assert (not (xor x5x1 x1x5)))
(assert (not (xor x5x2 x2x5)))
(assert (not (xor x5x3 x3x5)))
(assert (not (xor x5x4 x4x5)))
(assert (not (xor x5x6 x6x5)))
(assert (not (xor x6x1 x1x6)))
(assert (not (xor x6x2 x2x6)))
(assert (not (xor x6x3 x3x6)))
(assert (not (xor x6x4 x4x6)))
(assert (not (xor x6x5 x5x6)))

(assert-soft x1x4)
(assert-soft x2x4)
(assert-soft x3x4)
(assert-soft x4x5)
(assert-soft x5x4)
(assert-soft x6x4)
(check-sat)
(get-model)